src/asp/benchmarks/large8.lp
citta(spoleto).
citta(bastia_umbra).
citta(terni).
citta(amelia).
citta(san_giustino).
citta(castiglione_del_lago).
citta(umbertide).
citta(gualdo_tardino).
citta(citta_di_castello).
citta(magione).
citta(todi).
citta(gubbio).
citta(assisi).
citta(corciano).
citta(marsciano).
citta(orvieto).
citta(perugia).
citta(narni).
citta(foligno).

richiesta(spoleto, strade, 153).
richiesta(spoleto, fiumi, 74).
richiesta(spoleto, scuole, 174).
richiesta(spoleto, parchi, 82).
richiesta(spoleto, energia, 19).

richiesta(bastia_umbra, strade, 6).
richiesta(bastia_umbra, fiumi, 139).
richiesta(bastia_umbra, scuole, 330).
richiesta(bastia_umbra, parchi, 52).
richiesta(bastia_umbra, energia, 229).

richiesta(terni, strade, 16).
richiesta(terni, fiumi, 38).
richiesta(terni, scuole, 17).
richiesta(terni, parchi, 21).
richiesta(terni, energia, 41).

richiesta(amelia, strade, 78).
richiesta(amelia, fiumi, 295).
richiesta(amelia, scuole, 44).
richiesta(amelia, parchi, 121).
richiesta(amelia, energia, 283).

richiesta(san_giustino, strade, 90).
richiesta(san_giustino, fiumi, 28).
richiesta(san_giustino, scuole, 122).
richiesta(san_giustino, parchi, 251).
richiesta(san_giustino, energia, 15).

richiesta(castiglione_del_lago, strade, 460).
richiesta(castiglione_del_lago, fiumi, 235).
richiesta(castiglione_del_lago, scuole, 112).
richiesta(castiglione_del_lago, parchi, 143).
richiesta(castiglione_del_lago, energia, 60).

richiesta(umbertide, strade, 32).
richiesta(umbertide, fiumi, 7).
richiesta(umbertide, scuole, 68).
richiesta(umbertide, parchi, 70).
richiesta(umbertide, energia, 33).

richiesta(gualdo_tardino, strade, 174).
richiesta(gualdo_tardino, fiumi, 190).
richiesta(gualdo_tardino, scuole, 16).
richiesta(gualdo_tardino, parchi, 19).
richiesta(gualdo_tardino, energia, 121).

richiesta(citta_di_castello, strade, 62).
richiesta(citta_di_castello, fiumi, 66).
richiesta(citta_di_castello, scuole, 153).
richiesta(citta_di_castello, parchi, 83).
richiesta(citta_di_castello, energia, 113).

richiesta(magione, strade, 24).
richiesta(magione, fiumi, 22).
richiesta(magione, scuole, 6).
richiesta(magione, parchi, 191).
richiesta(magione, energia, 85).

richiesta(todi, strade, 33).
richiesta(todi, fiumi, 42).
richiesta(todi, scuole, 74).
richiesta(todi, parchi, 4).
richiesta(todi, energia, 167).

richiesta(gubbio, strade, 35).
richiesta(gubbio, fiumi, 27).
richiesta(gubbio, scuole, 90).
richiesta(gubbio, parchi, 270).
richiesta(gubbio, energia, 294).

richiesta(assisi, strade, 109).
richiesta(assisi, fiumi, 47).
richiesta(assisi, scuole, 289).
richiesta(assisi, parchi, 156).
richiesta(assisi, energia, 8).

richiesta(corciano, strade, 30).
richiesta(corciano, fiumi, 269).
richiesta(corciano, scuole, 277).
richiesta(corciano, parchi, 24).
richiesta(corciano, energia, 25).

richiesta(marsciano, strade, 6).
richiesta(marsciano, fiumi, 327).
richiesta(marsciano, scuole, 28).
richiesta(marsciano, parchi, 40).
richiesta(marsciano, energia, 262).

richiesta(orvieto, strade, 131).
richiesta(orvieto, fiumi, 104).
richiesta(orvieto, scuole, 66).
richiesta(orvieto, parchi, 18).
richiesta(orvieto, energia, 109).

richiesta(perugia, strade, 49).
richiesta(perugia, fiumi, 18).
richiesta(perugia, scuole, 51).
richiesta(perugia, parchi, 1).
richiesta(perugia, energia, 9).

richiesta(narni, strade, 145).
richiesta(narni, fiumi, 42).
richiesta(narni, scuole, 46).
richiesta(narni, parchi, 350).
richiesta(narni, energia, 230).

richiesta(foligno, strade, 89).
richiesta(foligno, fiumi, 17).
richiesta(foligno, scuole, 115).
richiesta(foligno, parchi, 25).
richiesta(foligno, energia, 138).

