src/minizinc/benchmarks/large8.dzn
COMUNI = {
	gubbio,
	todi,
	assisi,
	amelia,
	perugia,
	gualdo_tardino,
	corciano,
	orvieto,
	foligno,
	umbertide,
	marsciano,
	san_giustino,
	spoleto,
	bastia_umbra,
	citta_di_castello,
	terni,
	narni,
	magione,
	castiglione_del_lago,
};

NUMERO_COMUNI = 19;

ABITANTI_PER_COMUNE = [30, 15, 27, 11, 161, 14, 21, 19, 55, 16, 18, 11, 36, 21, 38, 106, 17, 14, 15];

STRADE_TRA_COMUNI = [|
	false, false, false, false, false, true, false, false, false, true, false, false, false, false, false, false, false, false, false |
	false, false, false, true, false, false, false, true, false, false, true, false, false, false, false, false, false, false, false |
	false, false, false, false, false, false, false, false, true, false, false, false, false, true, false, false, false, false, false |
	false, true, false, false, false, false, false, false, false, false, false, false, false, false, false, false, true, false, false |
	false, false, false, false, false, false, true, false, false, true, true, false, false, true, false, false, false, false, false |
	true, false, false, false, false, false, false, false, false, false, false, false, false, false, false, false, false, false, false |
	false, false, false, false, true, false, false, false, false, false, false, false, false, false, false, false, false, true, false |
	false, true, false, false, false, false, false, false, false, false, false, false, false, false, false, false, false, false, false |
	false, false, true, false, false, false, false, false, false, false, false, false, false, false, false, false, false, false, false |
	true, false, false, false, true, false, false, false, false, false, false, false, false, false, true, false, false, false, false |
	false, true, false, false, true, false, false, false, false, false, false, false, false, false, false, false, false, false, false |
	false, false, false, false, false, false, false, false, false, false, false, false, false, false, true, false, false, false, false |
	false, false, false, false, false, false, false, false, false, false, false, false, false, false, false, true, false, false, false |
	false, false, true, false, true, false, false, false, false, false, false, false, false, false, false, false, false, false, false |
	false, false, false, false, false, false, false, false, false, true, false, true, false, false, false, false, false, false, false |
	false, false, false, false, false, false, false, false, false, false, false, false, true, false, false, false, true, false, false |
	false, false, false, true, false, false, false, false, false, false, false, false, false, false, false, true, false, false, false |
	false, false, false, false, false, false, true, false, false, false, false, false, false, false, false, false, false, false, true |
	false, false, false, false, false, false, false, false, false, false, false, false, false, false, false, false, false, true, false |
|];

RICHIESTE = [|
	13, 4, 31, 1, 17 |
	26, 32, 4, 17, 2 |
	0, 9, 0, 7, 15 |
	3, 11, 11, 6, 0 |
	7, 2, 10, 0, 5 |
	9, 6, 12, 20, 18 |
	1, 20, 22, 6, 9 |
	0, 8, 7, 13, 2 |
	6, 7, 6, 39, 6 |
	7, 4, 0, 16, 14 |
	13, 0, 1, 8, 12 |
	11, 11, 3, 24, 7 |
	18, 5, 1, 1, 24 |
	0, 7, 18, 4, 3 |
	10, 2, 1, 7, 42 |
	5, 18, 8, 14, 0 |
	18, 25, 17, 1, 12 |
	14, 7, 1, 27, 8 |
	5, 19, 3, 9, 15 |
|];
